DIMENSION: 8
EDGE_WEIGHT_TYPE: EXPLICIT
EDGE_WEIGHT_FORMAT: FULL_MATRIX
EDGE_WEIGHT_SECTION:
32767 35 32767 32767 32767 17 88 32767 
35 32767 23 32767 32767 100 32767 32767 
32767 23 32767 32767 42 32767 32767 32767 
32767 32767 32767 32767 32767 32767 32767 32767 
32767 32767 42 32767 32767 83 32767 17 
17 100 32767 32767 83 32767 88 45 
88 32767 32767 32767 32767 88 32767 87 
32767 32767 32767 32767 17 45 87 32767 
EOF